NAME : 16 point circle
COMMENT : circle tsp by warren g. jackson
TYPE : TSP
DIMENSION : 16
EDGE_WEIGHT_TYPE : EUC_2D
NODE_COORD_SECTION
1 200 100
2 192.4 138.3
3 170.7 170.7
4 138.3 192.4
5 100 200
6 061.7 192.4
7 029.3 170.7
8 007.6 138.3
9 0 100
10 007.6 061.7
11 029.3 029.3
12 061.7 007.6
13 100 0
14 138.3 007.6
15 170.7 029.3
16 192.4 061.7
EOF
